unsat
(error "line 3001 column 17: model is not available")
(error "line 3002 column 17: model is not available")
(error "line 3003 column 18: model is not available")
(error "line 3004 column 19: model is not available")
(error "line 3005 column 19: model is not available")
(error "line 3006 column 19: model is not available")
(error "line 3007 column 19: model is not available")
(error "line 3008 column 19: model is not available")
(error "line 3009 column 19: model is not available")
(error "line 3010 column 19: model is not available")
(error "line 3011 column 19: model is not available")
(error "line 3012 column 19: model is not available")
(error "line 3013 column 19: model is not available")
(error "line 3014 column 18: model is not available")
(error "line 3015 column 19: model is not available")
(error "line 3016 column 19: model is not available")
(error "line 3017 column 19: model is not available")
(error "line 3018 column 19: model is not available")
(error "line 3019 column 19: model is not available")
(error "line 3020 column 19: model is not available")
(error "line 3021 column 19: model is not available")
(error "line 3022 column 19: model is not available")
(error "line 3023 column 19: model is not available")
(error "line 3024 column 19: model is not available")
(error "line 3025 column 18: model is not available")
(error "line 3026 column 19: model is not available")
(error "line 3027 column 19: model is not available")
(error "line 3028 column 19: model is not available")
(error "line 3029 column 19: model is not available")
(error "line 3030 column 19: model is not available")
(error "line 3031 column 19: model is not available")
(error "line 3032 column 19: model is not available")
(error "line 3033 column 18: model is not available")
(error "line 3034 column 18: model is not available")
(error "line 3035 column 18: model is not available")
(error "line 3036 column 18: model is not available")
(error "line 3037 column 18: model is not available")
(error "line 3038 column 18: model is not available")
(error "line 3039 column 18: model is not available")
(error "line 3040 column 17: model is not available")
(error "line 3041 column 18: model is not available")
(error "line 3042 column 18: model is not available")
(error "line 3043 column 18: model is not available")
(error "line 3044 column 18: model is not available")
(error "line 3045 column 18: model is not available")
(error "line 3046 column 18: model is not available")
(error "line 3047 column 18: model is not available")
(error "line 3048 column 18: model is not available")
(error "line 3049 column 18: model is not available")
(error "line 3050 column 18: model is not available")
(error "line 3051 column 17: model is not available")
(error "line 3052 column 18: model is not available")
(error "line 3053 column 18: model is not available")
(error "line 3054 column 18: model is not available")
(error "line 3055 column 18: model is not available")
(error "line 3056 column 18: model is not available")
(error "line 3057 column 18: model is not available")
(error "line 3058 column 18: model is not available")
(error "line 3059 column 18: model is not available")
(error "line 3060 column 18: model is not available")
(error "line 3061 column 18: model is not available")
(error "line 3062 column 17: model is not available")
(error "line 3063 column 18: model is not available")
(error "line 3064 column 18: model is not available")
(error "line 3065 column 18: model is not available")
(error "line 3066 column 18: model is not available")
(error "line 3067 column 18: model is not available")
(error "line 3068 column 18: model is not available")
(error "line 3069 column 18: model is not available")
(error "line 3070 column 18: model is not available")
(error "line 3071 column 18: model is not available")
(error "line 3072 column 18: model is not available")
(error "line 3073 column 17: model is not available")
(error "line 3074 column 18: model is not available")
(error "line 3075 column 18: model is not available")
(error "line 3076 column 18: model is not available")
(error "line 3077 column 18: model is not available")
(error "line 3078 column 18: model is not available")
(error "line 3079 column 18: model is not available")
(error "line 3080 column 18: model is not available")
(error "line 3081 column 18: model is not available")
(error "line 3082 column 18: model is not available")
(error "line 3083 column 18: model is not available")
(error "line 3084 column 17: model is not available")
(error "line 3085 column 18: model is not available")
(error "line 3086 column 18: model is not available")
(error "line 3087 column 18: model is not available")
(error "line 3088 column 18: model is not available")
(error "line 3089 column 18: model is not available")
(error "line 3090 column 18: model is not available")
(error "line 3091 column 18: model is not available")
(error "line 3092 column 18: model is not available")
(error "line 3093 column 18: model is not available")
(error "line 3094 column 18: model is not available")
(error "line 3095 column 17: model is not available")
(error "line 3096 column 18: model is not available")
(error "line 3097 column 18: model is not available")
(error "line 3098 column 18: model is not available")
(error "line 3099 column 18: model is not available")
(error "line 3100 column 18: model is not available")
(error "line 3101 column 18: model is not available")
(error "line 3102 column 18: model is not available")
(error "line 3103 column 18: model is not available")
(error "line 3104 column 18: model is not available")
(error "line 3105 column 18: model is not available")
(error "line 3106 column 17: model is not available")
(error "line 3107 column 18: model is not available")
(error "line 3108 column 18: model is not available")
(error "line 3109 column 18: model is not available")
(error "line 3110 column 18: model is not available")
(error "line 3111 column 18: model is not available")
(error "line 3112 column 18: model is not available")
(error "line 3113 column 18: model is not available")
(error "line 3114 column 18: model is not available")
(error "line 3115 column 18: model is not available")
(error "line 3116 column 18: model is not available")
(error "line 3117 column 17: model is not available")
(error "line 3118 column 18: model is not available")
(error "line 3119 column 18: model is not available")
(error "line 3120 column 18: model is not available")
(error "line 3121 column 18: model is not available")
(error "line 3122 column 18: model is not available")
(error "line 3123 column 18: model is not available")
(error "line 3124 column 18: model is not available")
(error "line 3125 column 18: model is not available")
(error "line 3126 column 18: model is not available")
(error "line 3127 column 18: model is not available")
(error "line 3128 column 38: model is not available")
(error "line 3129 column 45: model is not available")
(error "line 3130 column 38: model is not available")
(error "line 3131 column 45: model is not available")
(error "line 3132 column 46: model is not available")
(error "line 3133 column 53: model is not available")
(error "line 3134 column 40: model is not available")
(error "line 3135 column 47: model is not available")
(error "line 3136 column 38: model is not available")
(error "line 3137 column 45: model is not available")
(error "line 3138 column 38: model is not available")
(error "line 3139 column 45: model is not available")
(error "line 3140 column 41: model is not available")
(error "line 3141 column 48: model is not available")
(error "line 3142 column 41: model is not available")
(error "line 3143 column 48: model is not available")
(error "line 3144 column 41: model is not available")
(error "line 3145 column 48: model is not available")
(error "line 3146 column 41: model is not available")
(error "line 3147 column 41: model is not available")
(error "line 3148 column 48: model is not available")
(error "line 3149 column 37: model is not available")
(error "line 3150 column 44: model is not available")
(error "line 3151 column 42: model is not available")
(error "line 3152 column 42: model is not available")
(error "line 3153 column 42: model is not available")
(error "line 3154 column 38: model is not available")
(error "line 3155 column 38: model is not available")
(error "line 3156 column 38: model is not available")
(error "line 3157 column 38: model is not available")
(error "line 3158 column 38: model is not available")
(error "line 3159 column 41: model is not available")
(error "line 3160 column 48: model is not available")
(error "line 3161 column 36: model is not available")
(error "line 3162 column 47: model is not available")
(error "line 3163 column 44: model is not available")
(error "line 3164 column 44: model is not available")
(error "line 3165 column 38: model is not available")
(error "line 3166 column 39: model is not available")
(error "line 3167 column 39: model is not available")
(error "line 3168 column 39: model is not available")
(error "line 3169 column 39: model is not available")
(error "line 3170 column 39: model is not available")
(error "line 3171 column 39: model is not available")
(error "line 3172 column 39: model is not available")
(error "line 3173 column 39: model is not available")
(error "line 3174 column 39: model is not available")
(error "line 3175 column 39: model is not available")
(error "line 3176 column 38: model is not available")
(error "line 3177 column 39: model is not available")
(error "line 3178 column 38: model is not available")
(error "line 3179 column 38: model is not available")
(error "line 3180 column 38: model is not available")
(error "line 3181 column 38: model is not available")
(error "line 3182 column 38: model is not available")
(error "line 3183 column 38: model is not available")
(error "line 3184 column 38: model is not available")
(error "line 3185 column 19: model is not available")
(error "line 3186 column 26: model is not available")
(error "line 3187 column 20: model is not available")
(error "line 3188 column 27: model is not available")
(error "line 3189 column 20: model is not available")
(error "line 3190 column 27: model is not available")
(error "line 3191 column 20: model is not available")
(error "line 3192 column 27: model is not available")
(error "line 3193 column 20: model is not available")
(error "line 3194 column 27: model is not available")
(error "line 3195 column 20: model is not available")
(error "line 3196 column 27: model is not available")
(error "line 3197 column 20: model is not available")
(error "line 3198 column 27: model is not available")
(error "line 3199 column 20: model is not available")
(error "line 3200 column 27: model is not available")
(error "line 3201 column 19: model is not available")
(error "line 3202 column 26: model is not available")
(error "line 3203 column 19: model is not available")
(error "line 3204 column 26: model is not available")
(error "line 3205 column 19: model is not available")
(error "line 3206 column 26: model is not available")
(error "line 3207 column 19: model is not available")
(error "line 3208 column 26: model is not available")
(error "line 3209 column 19: model is not available")
(error "line 3210 column 26: model is not available")
(error "line 3211 column 19: model is not available")
(error "line 3212 column 26: model is not available")
(error "line 3213 column 19: model is not available")
(error "line 3214 column 26: model is not available")
(error "line 3215 column 19: model is not available")
(error "line 3216 column 26: model is not available")
(error "line 3217 column 36: model is not available")
(error "line 3218 column 36: model is not available")
(error "line 3219 column 34: model is not available")
(error "line 3220 column 34: model is not available")
(error "line 3221 column 34: model is not available")
(error "line 3222 column 34: model is not available")
(error "line 3223 column 34: model is not available")
(error "line 3224 column 34: model is not available")
(error "line 3225 column 34: model is not available")
(error "line 3226 column 34: model is not available")
(error "line 3227 column 34: model is not available")
(error "line 3228 column 29: model is not available")
(error "line 3229 column 31: model is not available")
(error "line 3230 column 38: model is not available")
(error "line 3231 column 32: model is not available")
(error "line 3232 column 39: model is not available")
(error "line 3233 column 32: model is not available")
(error "line 3234 column 39: model is not available")
(error "line 3235 column 32: model is not available")
(error "line 3236 column 39: model is not available")
(error "line 3237 column 32: model is not available")
(error "line 3238 column 39: model is not available")
(error "line 3239 column 31: model is not available")
(error "line 3240 column 38: model is not available")
(error "line 3241 column 31: model is not available")
(error "line 3242 column 38: model is not available")
(error "line 3243 column 31: model is not available")
(error "line 3244 column 38: model is not available")
(error "line 3245 column 31: model is not available")
(error "line 3246 column 38: model is not available")
(error "line 3247 column 31: model is not available")
(error "line 3248 column 38: model is not available")
(error "line 3249 column 31: model is not available")
(error "line 3250 column 38: model is not available")
(error "line 3251 column 31: model is not available")
(error "line 3252 column 38: model is not available")
(error "line 3253 column 31: model is not available")
(error "line 3254 column 38: model is not available")
(error "line 3255 column 30: model is not available")
(error "line 3256 column 32: model is not available")
(error "line 3257 column 39: model is not available")
(error "line 3258 column 32: model is not available")
(error "line 3259 column 39: model is not available")
(error "line 3260 column 32: model is not available")
(error "line 3261 column 39: model is not available")
(error "line 3262 column 32: model is not available")
(error "line 3263 column 39: model is not available")
(error "line 3264 column 32: model is not available")
(error "line 3265 column 39: model is not available")
(error "line 3266 column 32: model is not available")
(error "line 3267 column 34: model is not available")
(error "line 3268 column 36: model is not available")
(error "line 3269 column 43: model is not available")
(error "line 3270 column 36: model is not available")
(error "line 3271 column 43: model is not available")
(error "line 3272 column 36: model is not available")
(error "line 3273 column 43: model is not available")
(error "line 3274 column 36: model is not available")
(error "line 3275 column 43: model is not available")
(error "line 3276 column 52: model is not available")
(error "line 3277 column 51: model is not available")
(error "line 3278 column 53: model is not available")
(error "line 3279 column 53: model is not available")
(error "line 3280 column 53: model is not available")
(error "line 3281 column 53: model is not available")
(error "line 3282 column 53: model is not available")
(error "line 3283 column 53: model is not available")
(error "line 3284 column 53: model is not available")
(error "line 3285 column 53: model is not available")
(error "line 3286 column 53: model is not available")
(error "line 3287 column 53: model is not available")
(error "line 3288 column 53: model is not available")
(error "line 3289 column 53: model is not available")
(error "line 3290 column 52: model is not available")
(error "line 3291 column 51: model is not available")
(error "line 3292 column 51: model is not available")
(error "line 3293 column 52: model is not available")
(error "line 3294 column 53: model is not available")
(error "line 3295 column 52: model is not available")
(error "line 3296 column 53: model is not available")
(error "line 3297 column 52: model is not available")
(error "line 3298 column 53: model is not available")
(error "line 3299 column 52: model is not available")
(error "line 3300 column 52: model is not available")
(error "line 3301 column 51: model is not available")
(error "line 3302 column 51: model is not available")
(error "line 3303 column 52: model is not available")
(error "line 3304 column 53: model is not available")
(error "line 3305 column 52: model is not available")
(error "line 3306 column 53: model is not available")
(error "line 3307 column 52: model is not available")
(error "line 3308 column 52: model is not available")
(error "line 3309 column 52: model is not available")
(error "line 3310 column 53: model is not available")
(error "line 3311 column 52: model is not available")
(error "line 3312 column 52: model is not available")
(error "line 3313 column 52: model is not available")
(error "line 3314 column 52: model is not available")
(error "line 3315 column 52: model is not available")
(error "line 3316 column 52: model is not available")
(error "line 3317 column 52: model is not available")
(error "line 3318 column 52: model is not available")
(error "line 3319 column 52: model is not available")
(error "line 3320 column 52: model is not available")
(error "line 3321 column 52: model is not available")
(error "line 3322 column 53: model is not available")
(error "line 3323 column 53: model is not available")
(error "line 3324 column 53: model is not available")
(error "line 3325 column 52: model is not available")
(error "line 3326 column 52: model is not available")
(error "line 3327 column 52: model is not available")
(error "line 3328 column 52: model is not available")
(error "line 3329 column 52: model is not available")
(error "line 3330 column 51: model is not available")
(error "line 3331 column 51: model is not available")
(error "line 3332 column 52: model is not available")
(error "line 3333 column 51: model is not available")
(error "line 3334 column 52: model is not available")
(error "line 3335 column 51: model is not available")
(error "line 3336 column 52: model is not available")
(error "line 3337 column 52: model is not available")
(error "line 3338 column 52: model is not available")
(error "line 3339 column 51: model is not available")
(error "line 3340 column 51: model is not available")
(error "line 3341 column 52: model is not available")
(error "line 3342 column 52: model is not available")
(error "line 3343 column 52: model is not available")
(error "line 3344 column 52: model is not available")
(error "line 3345 column 52: model is not available")
(error "line 3346 column 52: model is not available")
(error "line 3347 column 52: model is not available")
(error "line 3348 column 52: model is not available")
(error "line 3349 column 52: model is not available")
(error "line 3350 column 52: model is not available")
(error "line 3351 column 52: model is not available")
(error "line 3352 column 53: model is not available")
(error "line 3353 column 53: model is not available")
(error "line 3354 column 53: model is not available")
(error "line 3355 column 52: model is not available")
(error "line 3356 column 52: model is not available")
(error "line 3357 column 52: model is not available")
(error "line 3358 column 52: model is not available")
(error "line 3359 column 52: model is not available")
(error "line 3360 column 51: model is not available")
(error "line 3361 column 51: model is not available")
(error "line 3362 column 52: model is not available")
(error "line 3363 column 51: model is not available")
(error "line 3364 column 52: model is not available")
(error "line 3365 column 51: model is not available")
(error "line 3366 column 52: model is not available")
(error "line 3367 column 52: model is not available")
(error "line 3368 column 52: model is not available")
(error "line 3369 column 51: model is not available")
(error "line 3370 column 51: model is not available")
(error "line 3371 column 56: model is not available")
(error "line 3372 column 56: model is not available")
(error "line 3373 column 56: model is not available")
(error "line 3374 column 56: model is not available")
(error "line 3375 column 55: model is not available")
(error "line 3376 column 21: model is not available")
(error "line 3377 column 28: model is not available")
(error "line 3378 column 22: model is not available")
(error "line 3379 column 29: model is not available")
(error "line 3380 column 22: model is not available")
(error "line 3381 column 29: model is not available")
(error "line 3382 column 22: model is not available")
(error "line 3383 column 29: model is not available")
(error "line 3384 column 22: model is not available")
(error "line 3385 column 29: model is not available")
(error "line 3386 column 22: model is not available")
(error "line 3387 column 29: model is not available")
(error "line 3388 column 21: model is not available")
(error "line 3389 column 28: model is not available")
(error "line 3390 column 21: model is not available")
(error "line 3391 column 28: model is not available")
(error "line 3392 column 21: model is not available")
(error "line 3393 column 28: model is not available")
(error "line 3394 column 21: model is not available")
(error "line 3395 column 28: model is not available")
(error "line 3396 column 21: model is not available")
(error "line 3397 column 28: model is not available")
(error "line 3398 column 21: model is not available")
(error "line 3399 column 28: model is not available")
(error "line 3400 column 21: model is not available")
(error "line 3401 column 28: model is not available")
(error "line 3402 column 21: model is not available")
(error "line 3403 column 28: model is not available")
(error "line 3404 column 20: model is not available")
(error "line 3405 column 27: model is not available")
(error "line 3406 column 21: model is not available")
(error "line 3407 column 28: model is not available")
(error "line 3408 column 21: model is not available")
(error "line 3409 column 28: model is not available")
(error "line 3410 column 21: model is not available")
(error "line 3411 column 28: model is not available")
(error "line 3412 column 21: model is not available")
(error "line 3413 column 28: model is not available")
(error "line 3414 column 20: model is not available")
(error "line 3415 column 27: model is not available")
(error "line 3416 column 20: model is not available")
(error "line 3417 column 27: model is not available")
(error "line 3418 column 20: model is not available")
(error "line 3419 column 27: model is not available")
(error "line 3420 column 20: model is not available")
(error "line 3421 column 27: model is not available")
(error "line 3422 column 20: model is not available")
(error "line 3423 column 27: model is not available")
(error "line 3424 column 20: model is not available")
(error "line 3425 column 27: model is not available")
(error "line 3426 column 20: model is not available")
(error "line 3427 column 27: model is not available")
(error "line 3428 column 20: model is not available")
(error "line 3429 column 27: model is not available")
(error "line 3430 column 54: model is not available")
(error "line 3431 column 54: model is not available")
(error "line 3432 column 52: model is not available")
(error "line 3433 column 52: model is not available")
(error "line 3434 column 49: model is not available")
(error "line 3435 column 49: model is not available")
(error "line 3436 column 49: model is not available")
(error "line 3437 column 44: model is not available")
(error "line 3438 column 44: model is not available")
(error "line 3439 column 49: model is not available")
(error "line 3440 column 49: model is not available")
(error "line 3441 column 46: model is not available")
(error "line 3442 column 46: model is not available")
(error "line 3443 column 46: model is not available")
(error "line 3444 column 46: model is not available")
(error "line 3445 column 54: model is not available")
(error "line 3446 column 54: model is not available")
(error "line 3447 column 54: model is not available")
(error "line 3448 column 54: model is not available")
(error "line 3449 column 54: model is not available")
(error "line 3450 column 54: model is not available")
(error "line 3451 column 40: model is not available")
(error "line 3452 column 40: model is not available")
(error "line 3453 column 40: model is not available")
(error "line 3454 column 40: model is not available")
(error "line 3455 column 41: model is not available")
(error "line 3456 column 41: model is not available")
(error "line 3457 column 41: model is not available")
(error "line 3458 column 41: model is not available")
(error "line 3459 column 50: model is not available")
(error "line 3460 column 50: model is not available")
(error "line 3461 column 50: model is not available")
(error "line 3462 column 50: model is not available")
(error "line 3463 column 43: model is not available")
(error "line 3464 column 43: model is not available")
(error "line 3465 column 43: model is not available")
(error "line 3466 column 43: model is not available")
(error "line 3467 column 44: model is not available")
(error "line 3468 column 44: model is not available")
(error "line 3469 column 53: model is not available")
(error "line 3470 column 53: model is not available")
(error "line 3471 column 50: model is not available")
(error "line 3472 column 50: model is not available")
(error "line 3473 column 50: model is not available")
(error "line 3474 column 46: model is not available")
(error "line 3475 column 50: model is not available")
(error "line 3476 column 50: model is not available")
(error "line 3477 column 50: model is not available")
(error "line 3478 column 52: model is not available")
(error "line 3479 column 52: model is not available")
(error "line 3480 column 21: model is not available")
(error "line 3481 column 28: model is not available")
(error "line 3482 column 21: model is not available")
(error "line 3483 column 28: model is not available")
(error "line 3484 column 30: model is not available")
(error "line 3485 column 30: model is not available")
(error "line 3486 column 41: model is not available")
(error "line 3487 column 41: model is not available")
(error "line 3488 column 39: model is not available")
(error "line 3489 column 39: model is not available")
(error "line 3490 column 39: model is not available")
(error "line 3491 column 39: model is not available")
(error "line 3492 column 39: model is not available")
(error "line 3493 column 39: model is not available")
(error "line 3494 column 39: model is not available")
(error "line 3495 column 39: model is not available")
(error "line 3496 column 39: model is not available")
(error "line 3497 column 39: model is not available")
(error "line 3498 column 39: model is not available")
(error "line 3499 column 39: model is not available")
(error "line 3500 column 39: model is not available")
(error "line 3501 column 39: model is not available")
(error "line 3502 column 39: model is not available")
(error "line 3503 column 36: model is not available")
(error "line 3504 column 36: model is not available")
(error "line 3505 column 36: model is not available")
(error "line 3506 column 36: model is not available")
(error "line 3507 column 36: model is not available")
(error "line 3508 column 36: model is not available")
(error "line 3509 column 38: model is not available")
(error "line 3510 column 38: model is not available")
(error "line 3511 column 38: model is not available")
(error "line 3512 column 38: model is not available")
(error "line 3513 column 38: model is not available")
(error "line 3514 column 38: model is not available")
(error "line 3515 column 35: model is not available")
(error "line 3516 column 35: model is not available")
(error "line 3517 column 35: model is not available")
(error "line 3519 column 10: model is not available")
(:max-memory   2.92
 :memory       2.92
 :mk-bool-var  1
 :num-allocs   226136
 :rlimit-count 1213
 :time         0.00
 :total-time   0.01)

real	0m0.014s
user	0m0.014s
sys	0m0.000s
State: RE Run_time: 0.015897274017333984